1287614
211,91,9,96,22,183,127,199,149,69,51,209,122,152,73,70,126,131,80,59,76,195,84,79,123,167,188,182,61,52,25,181,86,114,198,85,148,132,29,200,201,10,191,218,173,136,206,193,65,227,46,197,110,164,143,139,11,134,111,30,60,208,189,20,7,36,72,210,89,37,108,50,151,35,112,155,133,62,28,102,55,215,27,169,130,78,40,81,192,75,34,26,47,225,17,223,176,13,48,220,97,8,15,23,226,185,1,71,140,16,159,178,49,67,147,163,166,116,107,196,144,117,184,101,161,205,179,87,94,229,162,135,83,157,74,63,32,118,39,207,43,31,98,113,42,177,160,138,3,120,194,165,14,19,125,213,230,104,45,93,2,115,212,180,82,77,128,141,41,216,100,105,53,92,175,54,18,56,202,190,219,158,58,172,204,168,221,95,57,174,214,154,119,124,222,66,24,99,106,121,103,187,146,12,171,186,150,90,170,142,153,228,88,109,203,38,224,129,217,21,4,33,6,68,44,5,145,137,64,156,211